NAME: bayg29
TYPE: TSP
COMMENT: 29 Cities in Bavaria, geographical distances (Groetschel,Juenger,Reinelt)
DIMENSION: 29
EDGE_WEIGHT_TYPE: EXPLICIT
EDGE_WEIGHT_FORMAT: UPPER_ROW 
DISPLAY_DATA_TYPE: TWOD_DISPLAY
EDGE_WEIGHT_SECTION

Twice-around original: 2193
Twice-around Dijkstra: 4625
Ocorr Shortest - path: 2005

RUN FINISHED; exit value 0; real time: 0ms; user: 0ms; system: 0ms
